c turning on binary mode checking
c parsing input formula with 259840 variables and 1039924 clauses
c finished parsing, read 3204612 bytes from proof file
c detected empty clause; start verification via backward checking
c 6040 of 1039924 clauses in core                            
c 1978 of 120605 lemmas in core using 45766 resolution steps
c 0 RAT lemmas in core; 220 redundant literals in core lemmas
s VERIFIED
c verification time: 1.368 seconds
